100 6 100
26 90 55 28 79 2 66 75 88 17 9 37 31 6 2 20 83 85 64 17 89 31 34 31 40 38 32 32 78 76 29 56 67 36 84 98 39 2 73 79 19 82 16 2 40 71 23 76 56 87 93 45 70 27 76 62 17 8 46 48 37 28 4 56 64 41 54 55 43 28 35 15 62 51 17 55 22 92 31 30 80 76 76 2 56 52 65 73 13 11 21 50 39 78 6 4 19 12 59 62 
